<instance format="XCSP3" type="CSP">
  <variables>
    <var id="x0"> 6 8 17 </var>
    <var id="x1"> 1 6 9 12 17 </var>
    <var id="x2"> 2 6 9 </var>
    <var id="x3"> 1 9 </var>
    <var id="x4"> 1 6 8 9 </var>
    <var id="x5"> 1 2 6 12 17 </var>
    <var id="x6"> 2 6 9 17 </var>
    <var id="x7"> 6 14 </var>
    <var id="x8"> 1 3 6 12 14 </var>
    <var id="x9"> 3 6 9 16 </var>
    <var id="x10"> 3 12 14 </var>
    <var id="x11"> 1 6 12 14 </var>
    <var id="x12"> 1 14 16 </var>
    <var id="x13"> 3 6 13 16 </var>
    <var id="x14"> 1 13 </var>
    <var id="x15"> 3 6 8 14 </var>
    <var id="x16"> 2 3 5 14 17 </var>
    <var id="x17"> 2 3 5 10 14 </var>
    <var id="x18"> 2 5 6 8 14 </var>
    <var id="x19"> 3 5 10 14 </var>
    <var id="x20"> 3 6 8 </var>
    <var id="x21"> 3 10 14 17 </var>
    <var id="x22"> 2 3 5 6 17 </var>
    <var id="x23"> 4 8 </var>
    <var id="x24"> 3 4 8 12 </var>
    <var id="x25"> 3 9 10 </var>
    <var id="x26"> 3..5 9 10 </var>
    <var id="x27"> 3 8 9 </var>
    <var id="x28"> 3 8..10 12 </var>
    <var id="x29"> 3 4 10 12 </var>
    <var id="x30"> 0 4 </var>
    <var id="x31"> 3 16 </var>
    <var id="x32"> 3 4 12 </var>
    <var id="x33"> 1 4 12 </var>
    <var id="x34"> 3 10 15 16 </var>
    <var id="x35"> 1 10 12 </var>
    <var id="x36"> 1 3 4 10 12 </var>
    <var id="x37"> 1 4 15 </var>
    <var id="x38"> 0 6 9 12 </var>
    <var id="x39"> 2 7 12 14 </var>
    <var id="x40"> 1 7 9 14 </var>
    <var id="x41"> 1 2 6 12 </var>
    <var id="x42"> 6 9 12 </var>
    <var id="x43"> 1 12 14 </var>
    <var id="x44"> 6 7 </var>
    <var id="x45"> 2 6 9 </var>
    <var id="x46"> 5 6 9 12 16 </var>
    <var id="x47"> 6 12 14 </var>
    <var id="x48"> 5 6 9 12 17 </var>
    <var id="x49"> 5 12 14 16 </var>
    <var id="x50"> 5 6 12 17 </var>
    <var id="x51"> 6 9 12 16 </var>
    <var id="x52"> 5 7 14 16 17 </var>
    <var id="x53"> 7 </var>
    <var id="x54"> 4 6 8 15 </var>
    <var id="x55"> 6 10 15 16 </var>
    <var id="x56"> 5 6 10 13 </var>
    <var id="x57"> 6 8 10 16 </var>
    <var id="x58"> 5 15 16 </var>
    <var id="x59"> 5 6 10 13 16 </var>
    <var id="x60"> 4 13 15 </var>
    <var id="x61"> 4..6 16 </var>
    <var id="x62"> 0 3 6 </var>
    <var id="x63"> 1 4 6 </var>
    <var id="x64"> 0 2 3 6 7 </var>
    <var id="x65"> 2..4 7 </var>
    <var id="x66"> 1 3 6 7 13 </var>
    <var id="x67"> 1 3 4 13 </var>
    <var id="x68"> 0 1 7 </var>
    <var id="x69"> 3 6 7 13 </var>
    <var id="x70"> 7 11 </var>
    <var id="x71"> 1 3 12 </var>
    <var id="x72"> 1 5 12 </var>
    <var id="x73"> 2 3 5 7 16 </var>
    <var id="x74"> 2 3 5 12 16 </var>
    <var id="x75"> 2 3 7 16 </var>
    <var id="x76"> 3 5 7 16 </var>
    <var id="x77"> 2 3 5 16 </var>
    <var id="x78"> 4 6 7 14 15 </var>
    <var id="x79"> 5 6 </var>
    <var id="x80"> 1 4..6 15 </var>
    <var id="x81"> 2 5..7 </var>
    <var id="x82"> 1 2 5 6 </var>
    <var id="x83"> 1 4 14 </var>
    <var id="x84"> 1 5 7 14 15 </var>
    <var id="x85"> 1 4 7 15 </var>
    <var id="x86"> 4 6 9 17 </var>
    <var id="x87"> 2..4 17 </var>
    <var id="x88"> 2 3 10 </var>
    <var id="x89"> 2 3 6 9 10 </var>
    <var id="x90"> 3 4 9 10 </var>
    <var id="x91"> 3 6 9 13 </var>
    <var id="x92"> 3 6 9 10 </var>
    <var id="x93"> 17 </var>
    <var id="x94"> 4 6 15 17 </var>
    <var id="x95"> 3 5 6 9 12 </var>
    <var id="x96"> 3 5 6 9 </var>
    <var id="x97"> 3..5 12 17 </var>
    <var id="x98"> 4..6 12 </var>
    <var id="x99"> 3 6 9 15 </var>
    <var id="x100"> 5 6 12 17 </var>
    <var id="x101"> 3 5 6 17 </var>
    <var id="x102"> 6 7 14 17 </var>
    <var id="x103"> 6 12 16 </var>
    <var id="x104"> 1 6 12 14 </var>
    <var id="x105"> 1 6 12 17 </var>
    <var id="x106"> 10 12 14 16 </var>
    <var id="x107"> 1 6 12 14 </var>
    <var id="x108"> 1 7 10 14 </var>
    <var id="x109"> 6 10 12 16 </var>
    <var id="x110"> 3 5 11 16 </var>
    <var id="x111"> 1 4 5 15 </var>
    <var id="x112"> 3..5 </var>
    <var id="x113"> 1 4 5 8 </var>
    <var id="x114"> 1 3 8 16 </var>
    <var id="x115"> 1 3 4 </var>
    <var id="x116"> 1 5 15 16 </var>
    <var id="x117"> 3..5 16 </var>
    <var id="x118"> 3 5 9 16 </var>
    <var id="x119"> 3 5 7 9 16 </var>
    <var id="x120"> 5 14 </var>
    <var id="x121"> 3 7 9 16 </var>
    <var id="x122"> 3 9 10 16 </var>
    <var as="x21" id="x123"/>
    <var id="x124"> 3 5 7 10 16 17 </var>
    <var id="x125"> 3 5 9 16 17 </var>
    <var id="x126"> 3 5 14 16 </var>
    <var id="x127"> 3 7 16 </var>
    <var id="x128"> 3..5 7 14 </var>
    <var id="x129"> 3 7 13 16 </var>
    <var id="x130"> 5 13 </var>
    <var id="x131"> 3 11 16 </var>
    <var id="x132"> 5 7 14 16 </var>
    <var id="x133"> 3..5 16 </var>
    <var id="x134"> 3 6 </var>
    <var id="x135"> 0 3 5..7 </var>
    <var id="x136"> 3 5 </var>
    <var id="x137"> 5 6 </var>
    <var id="x138"> 3 5 7 </var>
    <var id="x139"> 3 5..7 17 </var>
    <var id="x140"> 0 7 11 </var>
  </variables>
  <constraints>
    <group>
      <allDifferent> %... </allDifferent>
      <args> x0 x1 x2 x3 x4 x5 x6 </args>
      <args> x7 x8 x9 x10 x11 x12 x13 x14 </args>
      <args> x15 x16 x17 x18 x19 x20 x21 x22 </args>
      <args> x23 x24 x25 x26 x27 x28 x29 x30 </args>
      <args> x31 x32 x33 x34 x35 x36 x37 </args>
      <args> x38 x39 x40 x41 x42 x43 x44 x45 </args>
      <args> x46 x47 x48 x49 x50 x51 x52 x53 </args>
      <args> x54 x55 x56 x57 x58 x59 x60 x61 </args>
      <args> x62 x63 x64 x65 x66 x67 x68 x69 </args>
      <args> x70 x71 x72 x73 x74 x75 x76 x77 </args>
      <args> x78 x79 x80 x81 x82 x83 x84 x85 </args>
      <args> x86 x87 x88 x89 x90 x91 x92 x93 </args>
      <args> x94 x95 x96 x97 x98 x99 x100 x101 </args>
      <args> x102 x103 x104 x105 x106 x107 x108 x109 </args>
      <args> x110 x111 x112 x113 x114 x115 x116 x117 </args>
      <args> x118 x119 x120 x121 x122 x123 x124 x125 </args>
      <args> x126 x127 x128 x129 x130 x131 x132 x133 </args>
      <args> x134 x135 x136 x137 x138 x139 x140 </args>
      <args> x0 x7 x23 x54 x70 x78 x94 x102 </args>
      <args> x38 x46 x62 x79 x95 x103 x110 x118 </args>
      <args> x8 x15 x24 x47 x71 x104 x134 </args>
      <args> x1 x48 x63 x72 x80 x86 x105 x111 </args>
      <args> x9 x31 x64 x73 x81 x96 x119 x135 </args>
      <args> x10 x16 x32 x39 x65 x87 x97 x112 </args>
      <args> x17 x49 x74 x88 x106 x126 x136 </args>
      <args> x11 x18 x33 x98 x107 x113 x120 x137 </args>
      <args> x2 x25 x34 x55 x75 x89 x99 x127 </args>
      <args> x3 x19 x26 x40 x90 x108 x128 x138 </args>
      <args> x4 x20 x27 x66 x91 x114 x121 x129 </args>
      <args> x5 x35 x41 x50 x56 x82 x100 x130 </args>
      <args> x28 x42 x51 x57 x92 x109 x122 x131 </args>
      <args> x21 x29 x36 x43 x67 x83 x115 x123 </args>
      <args> x12 x52 x58 x68 x84 x93 x116 x132 </args>
      <args> x13 x44 x59 x69 x76 x101 x124 x139 </args>
      <args> x14 x30 x37 x53 x60 x85 x140 </args>
      <args> x6 x22 x45 x61 x77 x117 x125 x133 </args>
    </group>
  </constraints>
</instance>

